p cnf 529 2022
30 50 -5 0
-5 35 28 0
21 -36 -10 0
-16 -43 30 0
-4 49 8 0
45 48 21 0
-33 -3 -12 0
-27 35 8 0
33 11 -28 0
8 -5 49 0
-27 -35 -22 0
44 -27 -22 0
15 28 32 0
-35 -33 -44 0
35 -15 36 0
33 -44 -11 0
-43 36 -19 0
26 -12 10 0
-24 -40 17 0
-28 -24 50 0
-20 -27 -7 0
33 -50 42 0
-32 -6 5 0
-43 -36 14 0
-17 2 -14 0
-29 47 32 0
-37 30 -7 0
-31 -34 -29 0
3 -7 -9 0
44 41 -46 0
-13 31 -36 0
-4 17 50 0
20 -11 22 0
11 -45 4 0
16 -15 -10 0
-39 12 -4 0
-38 -46 49 0
19 -40 22 0
34 -23 -27 0
-41 -4 -2 0
39 -31 5 0
-8 -50 12 0
-35 23 22 0
-12 -14 16 0
-11 -1 -7 0
47 26 1 0
48 -3 33 0
-36 13 -14 0
-42 -4 -24 0
-9 -12 -35 0
2 4 51 0
-2 4 -51 0
2 -4 -51 0
-2 -4 51 0
-5 6 52 0
5 6 -52 0
-5 -6 -52 0
5 -6 52 0
8 -10 53 0
-8 -10 -53 0
8 10 -53 0
-8 10 53 0
-11 -12 54 0
11 -12 -54 0
-11 12 -54 0
11 12 54 0
-14 17 55 0
14 17 -55 0
-14 -17 -55 0
14 -17 55 0
-18 -20 56 0
18 -20 -56 0
-18 20 -56 0
18 20 56 0
-21 22 57 0
21 22 -57 0
-21 -22 -57 0
21 -22 57 0
-23 24 58 0
23 24 -58 0
-23 -24 -58 0
23 -24 58 0
-25 -28 59 0
25 -28 -59 0
-25 28 -59 0
25 28 59 0
-32 -34 60 0
32 -34 -60 0
-32 34 -60 0
32 34 60 0
35 36 61 0
-35 36 -61 0
35 -36 -61 0
-35 -36 61 0
-37 -38 62 0
37 -38 -62 0
-37 38 -62 0
37 38 62 0
40 41 63 0
-40 41 -63 0
40 -41 -63 0
-40 -41 63 0
-43 -45 64 0
43 -45 -64 0
-43 45 -64 0
43 45 64 0
47 49 65 0
-47 49 -65 0
47 -49 -65 0
-47 -49 65 0
51 -52 66 0
-51 -52 -66 0
51 52 -66 0
-51 52 66 0
53 -54 67 0
-53 -54 -67 0
53 54 -67 0
-53 54 67 0
55 -56 68 0
-55 -56 -68 0
55 56 -68 0
-55 56 68 0
57 -58 69 0
-57 -58 -69 0
57 58 -69 0
-57 58 69 0
59 -60 70 0
-59 -60 -70 0
59 60 -70 0
-59 60 70 0
61 -62 71 0
-61 -62 -71 0
61 62 -71 0
-61 62 71 0
63 -64 72 0
-63 -64 -72 0
63 64 -72 0
-63 64 72 0
65 -66 73 0
-65 -66 -73 0
65 66 -73 0
-65 66 73 0
67 -68 74 0
-67 -68 -74 0
67 68 -74 0
-67 68 74 0
69 -70 75 0
-69 -70 -75 0
69 70 -75 0
-69 70 75 0
71 -72 76 0
-71 -72 -76 0
71 72 -76 0
-71 72 76 0
73 -74 77 0
-73 -74 -77 0
73 74 -77 0
-73 74 77 0
75 -76 78 0
-75 -76 -78 0
75 76 -78 0
-75 76 78 0
77 78 0
-77 -78 0
-4 5 79 0
4 5 -79 0
-4 -5 -79 0
4 -5 79 0
-6 -7 80 0
6 -7 -80 0
-6 7 -80 0
6 7 80 0
-9 10 81 0
9 10 -81 0
-9 -10 -81 0
9 -10 81 0
11 16 82 0
-11 16 -82 0
11 -16 -82 0
-11 -16 82 0
17 18 83 0
-17 18 -83 0
17 -18 -83 0
-17 -18 83 0
20 22 84 0
-20 22 -84 0
20 -22 -84 0
-20 -22 84 0
-23 -25 85 0
23 -25 -85 0
-23 25 -85 0
23 25 85 0
-26 -27 86 0
26 -27 -86 0
-26 27 -86 0
26 27 86 0
29 -30 87 0
-29 -30 -87 0
29 30 -87 0
-29 30 87 0
-33 34 88 0
33 34 -88 0
-33 -34 -88 0
33 -34 88 0
-35 -38 89 0
35 -38 -89 0
-35 38 -89 0
35 38 89 0
40 42 90 0
-40 42 -90 0
40 -42 -90 0
-40 -42 90 0
45 48 91 0
-45 48 -91 0
45 -48 -91 0
-45 -48 91 0
78 -79 92 0
-78 -79 -92 0
78 79 -92 0
-78 79 92 0
80 -81 93 0
-80 -81 -93 0
80 81 -93 0
-80 81 93 0
82 -83 94 0
-82 -83 -94 0
82 83 -94 0
-82 83 94 0
84 -85 95 0
-84 -85 -95 0
84 85 -95 0
-84 85 95 0
86 -87 96 0
-86 -87 -96 0
86 87 -96 0
-86 87 96 0
88 -89 97 0
-88 -89 -97 0
88 89 -97 0
-88 89 97 0
90 -91 98 0
-90 -91 -98 0
90 91 -98 0
-90 91 98 0
92 -93 99 0
-92 -93 -99 0
92 93 -99 0
-92 93 99 0
94 -95 100 0
-94 -95 -100 0
94 95 -100 0
-94 95 100 0
96 -97 101 0
-96 -97 -101 0
96 97 -101 0
-96 97 101 0
98 -99 102 0
-98 -99 -102 0
98 99 -102 0
-98 99 102 0
100 -101 103 0
-100 -101 -103 0
100 101 -103 0
-100 101 103 0
102 103 0
-102 -103 0
1 5 104 0
-1 5 -104 0
1 -5 -104 0
-1 -5 104 0
6 -7 105 0
-6 -7 -105 0
6 7 -105 0
-6 7 105 0
-10 12 106 0
10 12 -106 0
-10 -12 -106 0
10 -12 106 0
15 -16 107 0
-15 -16 -107 0
15 16 -107 0
-15 16 107 0
-17 18 108 0
17 18 -108 0
-17 -18 -108 0
17 -18 108 0
-21 22 109 0
21 22 -109 0
-21 -22 -109 0
21 -22 109 0
26 27 110 0
-26 27 -110 0
26 -27 -110 0
-26 -27 110 0
-29 30 111 0
29 30 -111 0
-29 -30 -111 0
29 -30 111 0
-31 -32 112 0
31 -32 -112 0
-31 32 -112 0
31 32 112 0
-34 35 113 0
34 35 -113 0
-34 -35 -113 0
34 -35 113 0
36 -37 114 0
-36 -37 -114 0
36 37 -114 0
-36 37 114 0
40 -44 115 0
-40 -44 -115 0
40 44 -115 0
-40 44 115 0
-49 50 116 0
49 50 -116 0
-49 -50 -116 0
49 -50 116 0
104 -105 117 0
-104 -105 -117 0
104 105 -117 0
-104 105 117 0
106 -107 118 0
-106 -107 -118 0
106 107 -118 0
-106 107 118 0
108 -109 119 0
-108 -109 -119 0
108 109 -119 0
-108 109 119 0
110 -111 120 0
-110 -111 -120 0
110 111 -120 0
-110 111 120 0
112 -113 121 0
-112 -113 -121 0
112 113 -121 0
-112 113 121 0
114 -115 122 0
-114 -115 -122 0
114 115 -122 0
-114 115 122 0
116 -117 123 0
-116 -117 -123 0
116 117 -123 0
-116 117 123 0
118 -119 124 0
-118 -119 -124 0
118 119 -124 0
-118 119 124 0
120 -121 125 0
-120 -121 -125 0
120 121 -125 0
-120 121 125 0
122 -123 126 0
-122 -123 -126 0
122 123 -126 0
-122 123 126 0
124 -125 127 0
-124 -125 -127 0
124 125 -127 0
-124 125 127 0
126 127 0
-126 -127 0
1 5 128 0
-1 5 -128 0
1 -5 -128 0
-1 -5 128 0
-7 -8 129 0
7 -8 -129 0
-7 8 -129 0
7 8 129 0
9 10 130 0
-9 10 -130 0
9 -10 -130 0
-9 -10 130 0
14 -15 131 0
-14 -15 -131 0
14 15 -131 0
-14 15 131 0
-16 -17 132 0
16 -17 -132 0
-16 17 -132 0
16 17 132 0
-20 -21 133 0
20 -21 -133 0
-20 21 -133 0
20 21 133 0
23 -24 134 0
-23 -24 -134 0
23 24 -134 0
-23 24 134 0
27 -28 135 0
-27 -28 -135 0
27 28 -135 0
-27 28 135 0
-29 -33 136 0
29 -33 -136 0
-29 33 -136 0
29 33 136 0
-35 36 137 0
35 36 -137 0
-35 -36 -137 0
35 -36 137 0
-42 45 138 0
42 45 -138 0
-42 -45 -138 0
42 -45 138 0
48 -49 139 0
-48 -49 -139 0
48 49 -139 0
-48 49 139 0
128 -129 140 0
-128 -129 -140 0
128 129 -140 0
-128 129 140 0
130 -131 141 0
-130 -131 -141 0
130 131 -141 0
-130 131 141 0
132 -133 142 0
-132 -133 -142 0
132 133 -142 0
-132 133 142 0
134 -135 143 0
-134 -135 -143 0
134 135 -143 0
-134 135 143 0
136 -137 144 0
-136 -137 -144 0
136 137 -144 0
-136 137 144 0
138 -139 145 0
-138 -139 -145 0
138 139 -145 0
-138 139 145 0
140 -141 146 0
-140 -141 -146 0
140 141 -146 0
-140 141 146 0
142 -143 147 0
-142 -143 -147 0
142 143 -147 0
-142 143 147 0
144 -145 148 0
-144 -145 -148 0
144 145 -148 0
-144 145 148 0
-146 -147 148 0
146 -147 -148 0
-146 147 -148 0
146 147 148 0
-1 -4 149 0
1 -4 -149 0
-1 4 -149 0
1 4 149 0
5 -8 150 0
-5 -8 -150 0
5 8 -150 0
-5 8 150 0
9 -10 151 0
-9 -10 -151 0
9 10 -151 0
-9 10 151 0
11 -12 152 0
-11 -12 -152 0
11 12 -152 0
-11 12 152 0
-13 15 153 0
13 15 -153 0
-13 -15 -153 0
13 -15 153 0
-17 -20 154 0
17 -20 -154 0
-17 20 -154 0
17 20 154 0
-21 23 155 0
21 23 -155 0
-21 -23 -155 0
21 -23 155 0
-25 26 156 0
25 26 -156 0
-25 -26 -156 0
25 -26 156 0
37 -41 157 0
-37 -41 -157 0
37 41 -157 0
-37 41 157 0
-42 -43 158 0
42 -43 -158 0
-42 43 -158 0
42 43 158 0
148 -149 159 0
-148 -149 -159 0
148 149 -159 0
-148 149 159 0
150 -151 160 0
-150 -151 -160 0
150 151 -160 0
-150 151 160 0
152 -153 161 0
-152 -153 -161 0
152 153 -161 0
-152 153 161 0
154 -155 162 0
-154 -155 -162 0
154 155 -162 0
-154 155 162 0
156 -157 163 0
-156 -157 -163 0
156 157 -163 0
-156 157 163 0
158 -159 164 0
-158 -159 -164 0
158 159 -164 0
-158 159 164 0
160 -161 165 0
-160 -161 -165 0
160 161 -165 0
-160 161 165 0
162 -163 166 0
-162 -163 -166 0
162 163 -166 0
-162 163 166 0
-164 -165 166 0
164 -165 -166 0
-164 165 -166 0
164 165 166 0
5 -7 167 0
-5 -7 -167 0
5 7 -167 0
-5 7 167 0
9 10 168 0
-9 10 -168 0
9 -10 -168 0
-9 -10 168 0
-12 -15 169 0
12 -15 -169 0
-12 15 -169 0
12 15 169 0
16 17 170 0
-16 17 -170 0
16 -17 -170 0
-16 -17 170 0
20 -27 171 0
-20 -27 -171 0
20 27 -171 0
-20 27 171 0
-30 -33 172 0
30 -33 -172 0
-30 33 -172 0
30 33 172 0
34 35 173 0
-34 35 -173 0
34 -35 -173 0
-34 -35 173 0
36 37 174 0
-36 37 -174 0
36 -37 -174 0
-36 -37 174 0
38 42 175 0
-38 42 -175 0
38 -42 -175 0
-38 -42 175 0
44 -46 176 0
-44 -46 -176 0
44 46 -176 0
-44 46 176 0
-47 -49 177 0
47 -49 -177 0
-47 49 -177 0
47 49 177 0
166 -167 178 0
-166 -167 -178 0
166 167 -178 0
-166 167 178 0
168 -169 179 0
-168 -169 -179 0
168 169 -179 0
-168 169 179 0
170 -171 180 0
-170 -171 -180 0
170 171 -180 0
-170 171 180 0
172 -173 181 0
-172 -173 -181 0
172 173 -181 0
-172 173 181 0
174 -175 182 0
-174 -175 -182 0
174 175 -182 0
-174 175 182 0
176 -177 183 0
-176 -177 -183 0
176 177 -183 0
-176 177 183 0
178 -179 184 0
-178 -179 -184 0
178 179 -184 0
-178 179 184 0
180 -181 185 0
-180 -181 -185 0
180 181 -185 0
-180 181 185 0
182 -183 186 0
-182 -183 -186 0
182 183 -186 0
-182 183 186 0
-184 -185 186 0
184 -185 -186 0
-184 185 -186 0
184 185 186 0
2 -3 187 0
-2 -3 -187 0
2 3 -187 0
-2 3 187 0
4 -7 188 0
-4 -7 -188 0
4 7 -188 0
-4 7 188 0
-8 -9 189 0
8 -9 -189 0
-8 9 -189 0
8 9 189 0
10 -12 190 0
-10 -12 -190 0
10 12 -190 0
-10 12 190 0
-14 16 191 0
14 16 -191 0
-14 -16 -191 0
14 -16 191 0
-18 -19 192 0
18 -19 -192 0
-18 19 -192 0
18 19 192 0
-23 -24 193 0
23 -24 -193 0
-23 24 -193 0
23 24 193 0
26 27 194 0
-26 27 -194 0
26 -27 -194 0
-26 -27 194 0
28 29 195 0
-28 29 -195 0
28 -29 -195 0
-28 -29 195 0
30 -32 196 0
-30 -32 -196 0
30 32 -196 0
-30 32 196 0
33 34 197 0
-33 34 -197 0
33 -34 -197 0
-33 -34 197 0
38 -40 198 0
-38 -40 -198 0
38 40 -198 0
-38 40 198 0
-42 43 199 0
42 43 -199 0
-42 -43 -199 0
42 -43 199 0
44 45 200 0
-44 45 -200 0
44 -45 -200 0
-44 -45 200 0
186 -187 201 0
-186 -187 -201 0
186 187 -201 0
-186 187 201 0
188 -189 202 0
-188 -189 -202 0
188 189 -202 0
-188 189 202 0
190 -191 203 0
-190 -191 -203 0
190 191 -203 0
-190 191 203 0
192 -193 204 0
-192 -193 -204 0
192 193 -204 0
-192 193 204 0
194 -195 205 0
-194 -195 -205 0
194 195 -205 0
-194 195 205 0
196 -197 206 0
-196 -197 -206 0
196 197 -206 0
-196 197 206 0
198 -199 207 0
-198 -199 -207 0
198 199 -207 0
-198 199 207 0
200 -201 208 0
-200 -201 -208 0
200 201 -208 0
-200 201 208 0
202 -203 209 0
-202 -203 -209 0
202 203 -209 0
-202 203 209 0
204 -205 210 0
-204 -205 -210 0
204 205 -210 0
-204 205 210 0
206 -207 211 0
-206 -207 -211 0
206 207 -211 0
-206 207 211 0
208 -209 212 0
-208 -209 -212 0
208 209 -212 0
-208 209 212 0
210 -211 213 0
-210 -211 -213 0
210 211 -213 0
-210 211 213 0
212 213 0
-212 -213 0
1 6 214 0
-1 6 -214 0
1 -6 -214 0
-1 -6 214 0
-7 8 215 0
7 8 -215 0
-7 -8 -215 0
7 -8 215 0
11 -12 216 0
-11 -12 -216 0
11 12 -216 0
-11 12 216 0
-16 20 217 0
16 20 -217 0
-16 -20 -217 0
16 -20 217 0
-23 24 218 0
23 24 -218 0
-23 -24 -218 0
23 -24 218 0
-31 34 219 0
31 34 -219 0
-31 -34 -219 0
31 -34 219 0
35 37 220 0
-35 37 -220 0
35 -37 -220 0
-35 -37 220 0
38 39 221 0
-38 39 -221 0
38 -39 -221 0
-38 -39 221 0
-41 -42 222 0
41 -42 -222 0
-41 42 -222 0
41 42 222 0
-44 -45 223 0
44 -45 -223 0
-44 45 -223 0
44 45 223 0
47 -48 224 0
-47 -48 -224 0
47 48 -224 0
-47 48 224 0
213 -214 225 0
-213 -214 -225 0
213 214 -225 0
-213 214 225 0
215 -216 226 0
-215 -216 -226 0
215 216 -226 0
-215 216 226 0
217 -218 227 0
-217 -218 -227 0
217 218 -227 0
-217 218 227 0
219 -220 228 0
-219 -220 -228 0
219 220 -228 0
-219 220 228 0
221 -222 229 0
-221 -222 -229 0
221 222 -229 0
-221 222 229 0
223 -224 230 0
-223 -224 -230 0
223 224 -230 0
-223 224 230 0
225 -226 231 0
-225 -226 -231 0
225 226 -231 0
-225 226 231 0
227 -228 232 0
-227 -228 -232 0
227 228 -232 0
-227 228 232 0
229 -230 233 0
-229 -230 -233 0
229 230 -233 0
-229 230 233 0
-231 -232 233 0
231 -232 -233 0
-231 232 -233 0
231 232 233 0
-3 4 234 0
3 4 -234 0
-3 -4 -234 0
3 -4 234 0
-7 -13 235 0
7 -13 -235 0
-7 13 -235 0
7 13 235 0
14 19 236 0
-14 19 -236 0
14 -19 -236 0
-14 -19 236 0
-22 -26 237 0
22 -26 -237 0
-22 26 -237 0
22 26 237 0
-28 -29 238 0
28 -29 -238 0
-28 29 -238 0
28 29 238 0
-31 -32 239 0
31 -32 -239 0
-31 32 -239 0
31 32 239 0
-35 36 240 0
35 36 -240 0
-35 -36 -240 0
35 -36 240 0
37 40 241 0
-37 40 -241 0
37 -40 -241 0
-37 -40 241 0
-42 -43 242 0
42 -43 -242 0
-42 43 -242 0
42 43 242 0
46 -47 243 0
-46 -47 -243 0
46 47 -243 0
-46 47 243 0
-48 -49 244 0
48 -49 -244 0
-48 49 -244 0
48 49 244 0
234 -235 245 0
-234 -235 -245 0
234 235 -245 0
-234 235 245 0
236 -237 246 0
-236 -237 -246 0
236 237 -246 0
-236 237 246 0
238 -239 247 0
-238 -239 -247 0
238 239 -247 0
-238 239 247 0
240 -241 248 0
-240 -241 -248 0
240 241 -248 0
-240 241 248 0
242 -243 249 0
-242 -243 -249 0
242 243 -249 0
-242 243 249 0
244 -245 250 0
-244 -245 -250 0
244 245 -250 0
-244 245 250 0
246 -247 251 0
-246 -247 -251 0
246 247 -251 0
-246 247 251 0
248 -249 252 0
-248 -249 -252 0
248 249 -252 0
-248 249 252 0
-250 -251 252 0
250 -251 -252 0
-250 251 -252 0
250 251 252 0
1 -2 253 0
-1 -2 -253 0
1 2 -253 0
-1 2 253 0
-7 8 254 0
7 8 -254 0
-7 -8 -254 0
7 -8 254 0
-9 10 255 0
9 10 -255 0
-9 -10 -255 0
9 -10 255 0
-11 -13 256 0
11 -13 -256 0
-11 13 -256 0
11 13 256 0
15 17 257 0
-15 17 -257 0
15 -17 -257 0
-15 -17 257 0
-19 21 258 0
19 21 -258 0
-19 -21 -258 0
19 -21 258 0
-22 24 259 0
22 24 -259 0
-22 -24 -259 0
22 -24 259 0
27 -28 260 0
-27 -28 -260 0
27 28 -260 0
-27 28 260 0
-32 -33 261 0
32 -33 -261 0
-32 33 -261 0
32 33 261 0
-35 -36 262 0
35 -36 -262 0
-35 36 -262 0
35 36 262 0
-37 -39 263 0
37 -39 -263 0
-37 39 -263 0
37 39 263 0
-41 47 264 0
41 47 -264 0
-41 -47 -264 0
41 -47 264 0
253 -254 265 0
-253 -254 -265 0
253 254 -265 0
-253 254 265 0
255 -256 266 0
-255 -256 -266 0
255 256 -266 0
-255 256 266 0
257 -258 267 0
-257 -258 -267 0
257 258 -267 0
-257 258 267 0
259 -260 268 0
-259 -260 -268 0
259 260 -268 0
-259 260 268 0
261 -262 269 0
-261 -262 -269 0
261 262 -269 0
-261 262 269 0
263 -264 270 0
-263 -264 -270 0
263 264 -270 0
-263 264 270 0
265 -266 271 0
-265 -266 -271 0
265 266 -271 0
-265 266 271 0
267 -268 272 0
-267 -268 -272 0
267 268 -272 0
-267 268 272 0
269 -270 273 0
-269 -270 -273 0
269 270 -273 0
-269 270 273 0
-271 -272 273 0
271 -272 -273 0
-271 272 -273 0
271 272 273 0
-1 3 274 0
1 3 -274 0
-1 -3 -274 0
1 -3 274 0
-4 5 275 0
4 5 -275 0
-4 -5 -275 0
4 -5 275 0
-6 -12 276 0
6 -12 -276 0
-6 12 -276 0
6 12 276 0
13 14 277 0
-13 14 -277 0
13 -14 -277 0
-13 -14 277 0
15 19 278 0
-15 19 -278 0
15 -19 -278 0
-15 -19 278 0
-22 -23 279 0
22 -23 -279 0
-22 23 -279 0
22 23 279 0
-25 26 280 0
25 26 -280 0
-25 -26 -280 0
25 -26 280 0
27 29 281 0
-27 29 -281 0
27 -29 -281 0
-27 -29 281 0
30 32 282 0
-30 32 -282 0
30 -32 -282 0
-30 -32 282 0
34 -35 283 0
-34 -35 -283 0
34 35 -283 0
-34 35 283 0
-37 40 284 0
37 40 -284 0
-37 -40 -284 0
37 -40 284 0
-41 -42 285 0
41 -42 -285 0
-41 42 -285 0
41 42 285 0
-43 -44 286 0
43 -44 -286 0
-43 44 -286 0
43 44 286 0
-45 -46 287 0
45 -46 -287 0
-45 46 -287 0
45 46 287 0
-48 50 288 0
48 50 -288 0
-48 -50 -288 0
48 -50 288 0
274 -275 289 0
-274 -275 -289 0
274 275 -289 0
-274 275 289 0
276 -277 290 0
-276 -277 -290 0
276 277 -290 0
-276 277 290 0
278 -279 291 0
-278 -279 -291 0
278 279 -291 0
-278 279 291 0
280 -281 292 0
-280 -281 -292 0
280 281 -292 0
-280 281 292 0
282 -283 293 0
-282 -283 -293 0
282 283 -293 0
-282 283 293 0
284 -285 294 0
-284 -285 -294 0
284 285 -294 0
-284 285 294 0
286 -287 295 0
-286 -287 -295 0
286 287 -295 0
-286 287 295 0
288 -289 296 0
-288 -289 -296 0
288 289 -296 0
-288 289 296 0
290 -291 297 0
-290 -291 -297 0
290 291 -297 0
-290 291 297 0
292 -293 298 0
-292 -293 -298 0
292 293 -298 0
-292 293 298 0
294 -295 299 0
-294 -295 -299 0
294 295 -299 0
-294 295 299 0
296 -297 300 0
-296 -297 -300 0
296 297 -300 0
-296 297 300 0
298 -299 301 0
-298 -299 -301 0
298 299 -301 0
-298 299 301 0
300 301 0
-300 -301 0
-1 -2 302 0
1 -2 -302 0
-1 2 -302 0
1 2 302 0
-4 6 303 0
4 6 -303 0
-4 -6 -303 0
4 -6 303 0
8 -10 304 0
-8 -10 -304 0
8 10 -304 0
-8 10 304 0
-16 -17 305 0
16 -17 -305 0
-16 17 -305 0
16 17 305 0
19 20 306 0
-19 20 -306 0
19 -20 -306 0
-19 -20 306 0
23 25 307 0
-23 25 -307 0
23 -25 -307 0
-23 -25 307 0
-26 -29 308 0
26 -29 -308 0
-26 29 -308 0
26 29 308 0
30 -31 309 0
-30 -31 -309 0
30 31 -309 0
-30 31 309 0
-34 37 310 0
34 37 -310 0
-34 -37 -310 0
34 -37 310 0
47 -48 311 0
-47 -48 -311 0
47 48 -311 0
-47 48 311 0
301 -302 312 0
-301 -302 -312 0
301 302 -312 0
-301 302 312 0
303 -304 313 0
-303 -304 -313 0
303 304 -313 0
-303 304 313 0
305 -306 314 0
-305 -306 -314 0
305 306 -314 0
-305 306 314 0
307 -308 315 0
-307 -308 -315 0
307 308 -315 0
-307 308 315 0
309 -310 316 0
-309 -310 -316 0
309 310 -316 0
-309 310 316 0
311 -312 317 0
-311 -312 -317 0
311 312 -317 0
-311 312 317 0
313 -314 318 0
-313 -314 -318 0
313 314 -318 0
-313 314 318 0
315 -316 319 0
-315 -316 -319 0
315 316 -319 0
-315 316 319 0
-317 -318 319 0
317 -318 -319 0
-317 318 -319 0
317 318 319 0
-5 -6 320 0
5 -6 -320 0
-5 6 -320 0
5 6 320 0
7 -9 321 0
-7 -9 -321 0
7 9 -321 0
-7 9 321 0
10 11 322 0
-10 11 -322 0
10 -11 -322 0
-10 -11 322 0
12 -15 323 0
-12 -15 -323 0
12 15 -323 0
-12 15 323 0
-16 18 324 0
16 18 -324 0
-16 -18 -324 0
16 -18 324 0
-20 22 325 0
20 22 -325 0
-20 -22 -325 0
20 -22 325 0
-25 -26 326 0
25 -26 -326 0
-25 26 -326 0
25 26 326 0
28 29 327 0
-28 29 -327 0
28 -29 -327 0
-28 -29 327 0
-30 -31 328 0
30 -31 -328 0
-30 31 -328 0
30 31 328 0
-34 35 329 0
34 35 -329 0
-34 -35 -329 0
34 -35 329 0
36 -37 330 0
-36 -37 -330 0
36 37 -330 0
-36 37 330 0
38 40 331 0
-38 40 -331 0
38 -40 -331 0
-38 -40 331 0
42 43 332 0
-42 43 -332 0
42 -43 -332 0
-42 -43 332 0
44 46 333 0
-44 46 -333 0
44 -46 -333 0
-44 -46 333 0
47 -49 334 0
-47 -49 -334 0
47 49 -334 0
-47 49 334 0
319 -320 335 0
-319 -320 -335 0
319 320 -335 0
-319 320 335 0
321 -322 336 0
-321 -322 -336 0
321 322 -336 0
-321 322 336 0
323 -324 337 0
-323 -324 -337 0
323 324 -337 0
-323 324 337 0
325 -326 338 0
-325 -326 -338 0
325 326 -338 0
-325 326 338 0
327 -328 339 0
-327 -328 -339 0
327 328 -339 0
-327 328 339 0
329 -330 340 0
-329 -330 -340 0
329 330 -340 0
-329 330 340 0
331 -332 341 0
-331 -332 -341 0
331 332 -341 0
-331 332 341 0
333 -334 342 0
-333 -334 -342 0
333 334 -342 0
-333 334 342 0
335 -336 343 0
-335 -336 -343 0
335 336 -343 0
-335 336 343 0
337 -338 344 0
-337 -338 -344 0
337 338 -344 0
-337 338 344 0
339 -340 345 0
-339 -340 -345 0
339 340 -345 0
-339 340 345 0
341 -342 346 0
-341 -342 -346 0
341 342 -346 0
-341 342 346 0
343 -344 347 0
-343 -344 -347 0
343 344 -347 0
-343 344 347 0
345 -346 348 0
-345 -346 -348 0
345 346 -348 0
-345 346 348 0
347 348 0
-347 -348 0
-3 4 349 0
3 4 -349 0
-3 -4 -349 0
3 -4 349 0
-5 -6 350 0
5 -6 -350 0
-5 6 -350 0
5 6 350 0
9 -11 351 0
-9 -11 -351 0
9 11 -351 0
-9 11 351 0
-12 -13 352 0
12 -13 -352 0
-12 13 -352 0
12 13 352 0
15 16 353 0
-15 16 -353 0
15 -16 -353 0
-15 -16 353 0
-17 -19 354 0
17 -19 -354 0
-17 19 -354 0
17 19 354 0
21 -22 355 0
-21 -22 -355 0
21 22 -355 0
-21 22 355 0
-24 25 356 0
24 25 -356 0
-24 -25 -356 0
24 -25 356 0
26 27 357 0
-26 27 -357 0
26 -27 -357 0
-26 -27 357 0
28 -29 358 0
-28 -29 -358 0
28 29 -358 0
-28 29 358 0
-30 31 359 0
30 31 -359 0
-30 -31 -359 0
30 -31 359 0
34 -35 360 0
-34 -35 -360 0
34 35 -360 0
-34 35 360 0
42 47 361 0
-42 47 -361 0
42 -47 -361 0
-42 -47 361 0
48 49 362 0
-48 49 -362 0
48 -49 -362 0
-48 -49 362 0
349 -350 363 0
-349 -350 -363 0
349 350 -363 0
-349 350 363 0
351 -352 364 0
-351 -352 -364 0
351 352 -364 0
-351 352 364 0
353 -354 365 0
-353 -354 -365 0
353 354 -365 0
-353 354 365 0
355 -356 366 0
-355 -356 -366 0
355 356 -366 0
-355 356 366 0
357 -358 367 0
-357 -358 -367 0
357 358 -367 0
-357 358 367 0
359 -360 368 0
-359 -360 -368 0
359 360 -368 0
-359 360 368 0
361 -362 369 0
-361 -362 -369 0
361 362 -369 0
-361 362 369 0
363 -364 370 0
-363 -364 -370 0
363 364 -370 0
-363 364 370 0
365 -366 371 0
-365 -366 -371 0
365 366 -371 0
-365 366 371 0
367 -368 372 0
-367 -368 -372 0
367 368 -372 0
-367 368 372 0
369 -370 373 0
-369 -370 -373 0
369 370 -373 0
-369 370 373 0
371 -372 374 0
-371 -372 -374 0
371 372 -374 0
-371 372 374 0
373 374 0
-373 -374 0
1 2 375 0
-1 2 -375 0
1 -2 -375 0
-1 -2 375 0
-3 -6 376 0
3 -6 -376 0
-3 6 -376 0
3 6 376 0
-7 -8 377 0
7 -8 -377 0
-7 8 -377 0
7 8 377 0
-11 -18 378 0
11 -18 -378 0
-11 18 -378 0
11 18 378 0
20 -22 379 0
-20 -22 -379 0
20 22 -379 0
-20 22 379 0
23 -24 380 0
-23 -24 -380 0
23 24 -380 0
-23 24 380 0
-25 26 381 0
25 26 -381 0
-25 -26 -381 0
25 -26 381 0
-28 29 382 0
28 29 -382 0
-28 -29 -382 0
28 -29 382 0
30 32 383 0
-30 32 -383 0
30 -32 -383 0
-30 -32 383 0
-33 34 384 0
33 34 -384 0
-33 -34 -384 0
33 -34 384 0
-35 36 385 0
35 36 -385 0
-35 -36 -385 0
35 -36 385 0
39 -43 386 0
-39 -43 -386 0
39 43 -386 0
-39 43 386 0
44 46 387 0
-44 46 -387 0
44 -46 -387 0
-44 -46 387 0
48 50 388 0
-48 50 -388 0
48 -50 -388 0
-48 -50 388 0
375 -376 389 0
-375 -376 -389 0
375 376 -389 0
-375 376 389 0
377 -378 390 0
-377 -378 -390 0
377 378 -390 0
-377 378 390 0
379 -380 391 0
-379 -380 -391 0
379 380 -391 0
-379 380 391 0
381 -382 392 0
-381 -382 -392 0
381 382 -392 0
-381 382 392 0
383 -384 393 0
-383 -384 -393 0
383 384 -393 0
-383 384 393 0
385 -386 394 0
-385 -386 -394 0
385 386 -394 0
-385 386 394 0
387 -388 395 0
-387 -388 -395 0
387 388 -395 0
-387 388 395 0
389 -390 396 0
-389 -390 -396 0
389 390 -396 0
-389 390 396 0
391 -392 397 0
-391 -392 -397 0
391 392 -397 0
-391 392 397 0
393 -394 398 0
-393 -394 -398 0
393 394 -398 0
-393 394 398 0
395 -396 399 0
-395 -396 -399 0
395 396 -399 0
-395 396 399 0
397 -398 400 0
-397 -398 -400 0
397 398 -400 0
-397 398 400 0
399 400 0
-399 -400 0
-2 -4 401 0
2 -4 -401 0
-2 4 -401 0
2 4 401 0
5 7 402 0
-5 7 -402 0
5 -7 -402 0
-5 -7 402 0
-8 -10 403 0
8 -10 -403 0
-8 10 -403 0
8 10 403 0
-14 17 404 0
14 17 -404 0
-14 -17 -404 0
14 -17 404 0
-19 20 405 0
19 20 -405 0
-19 -20 -405 0
19 -20 405 0
22 23 406 0
-22 23 -406 0
22 -23 -406 0
-22 -23 406 0
24 -25 407 0
-24 -25 -407 0
24 25 -407 0
-24 25 407 0
-33 -34 408 0
33 -34 -408 0
-33 34 -408 0
33 34 408 0
35 -39 409 0
-35 -39 -409 0
35 39 -409 0
-35 39 409 0
40 -43 410 0
-40 -43 -410 0
40 43 -410 0
-40 43 410 0
46 -47 411 0
-46 -47 -411 0
46 47 -411 0
-46 47 411 0
-49 -50 412 0
49 -50 -412 0
-49 50 -412 0
49 50 412 0
401 -402 413 0
-401 -402 -413 0
401 402 -413 0
-401 402 413 0
403 -404 414 0
-403 -404 -414 0
403 404 -414 0
-403 404 414 0
405 -406 415 0
-405 -406 -415 0
405 406 -415 0
-405 406 415 0
407 -408 416 0
-407 -408 -416 0
407 408 -416 0
-407 408 416 0
409 -410 417 0
-409 -410 -417 0
409 410 -417 0
-409 410 417 0
411 -412 418 0
-411 -412 -418 0
411 412 -418 0
-411 412 418 0
413 -414 419 0
-413 -414 -419 0
413 414 -419 0
-413 414 419 0
415 -416 420 0
-415 -416 -420 0
415 416 -420 0
-415 416 420 0
417 -418 421 0
-417 -418 -421 0
417 418 -421 0
-417 418 421 0
-419 -420 421 0
419 -420 -421 0
-419 420 -421 0
419 420 421 0
1 -3 422 0
-1 -3 -422 0
1 3 -422 0
-1 3 422 0
-5 6 423 0
5 6 -423 0
-5 -6 -423 0
5 -6 423 0
-9 -10 424 0
9 -10 -424 0
-9 10 -424 0
9 10 424 0
11 -12 425 0
-11 -12 -425 0
11 12 -425 0
-11 12 425 0
13 -17 426 0
-13 -17 -426 0
13 17 -426 0
-13 17 426 0
18 -20 427 0
-18 -20 -427 0
18 20 -427 0
-18 20 427 0
22 23 428 0
-22 23 -428 0
22 -23 -428 0
-22 -23 428 0
25 -26 429 0
-25 -26 -429 0
25 26 -429 0
-25 26 429 0
-27 29 430 0
27 29 -430 0
-27 -29 -430 0
27 -29 430 0
-30 32 431 0
30 32 -431 0
-30 -32 -431 0
30 -32 431 0
33 -34 432 0
-33 -34 -432 0
33 34 -432 0
-33 34 432 0
35 36 433 0
-35 36 -433 0
35 -36 -433 0
-35 -36 433 0
37 -38 434 0
-37 -38 -434 0
37 38 -434 0
-37 38 434 0
-39 -40 435 0
39 -40 -435 0
-39 40 -435 0
39 40 435 0
43 44 436 0
-43 44 -436 0
43 -44 -436 0
-43 -44 436 0
47 50 437 0
-47 50 -437 0
47 -50 -437 0
-47 -50 437 0
422 -423 438 0
-422 -423 -438 0
422 423 -438 0
-422 423 438 0
424 -425 439 0
-424 -425 -439 0
424 425 -439 0
-424 425 439 0
426 -427 440 0
-426 -427 -440 0
426 427 -440 0
-426 427 440 0
428 -429 441 0
-428 -429 -441 0
428 429 -441 0
-428 429 441 0
430 -431 442 0
-430 -431 -442 0
430 431 -442 0
-430 431 442 0
432 -433 443 0
-432 -433 -443 0
432 433 -443 0
-432 433 443 0
434 -435 444 0
-434 -435 -444 0
434 435 -444 0
-434 435 444 0
436 -437 445 0
-436 -437 -445 0
436 437 -445 0
-436 437 445 0
438 -439 446 0
-438 -439 -446 0
438 439 -446 0
-438 439 446 0
440 -441 447 0
-440 -441 -447 0
440 441 -447 0
-440 441 447 0
442 -443 448 0
-442 -443 -448 0
442 443 -448 0
-442 443 448 0
444 -445 449 0
-444 -445 -449 0
444 445 -449 0
-444 445 449 0
446 -447 450 0
-446 -447 -450 0
446 447 -450 0
-446 447 450 0
448 -449 451 0
-448 -449 -451 0
448 449 -451 0
-448 449 451 0
450 451 0
-450 -451 0
-1 2 452 0
1 2 -452 0
-1 -2 -452 0
1 -2 452 0
-5 -6 453 0
5 -6 -453 0
-5 6 -453 0
5 6 453 0
-7 -9 454 0
7 -9 -454 0
-7 9 -454 0
7 9 454 0
10 -11 455 0
-10 -11 -455 0
10 11 -455 0
-10 11 455 0
-12 13 456 0
12 13 -456 0
-12 -13 -456 0
12 -13 456 0
14 16 457 0
-14 16 -457 0
14 -16 -457 0
-14 -16 457 0
18 19 458 0
-18 19 -458 0
18 -19 -458 0
-18 -19 458 0
-20 22 459 0
20 22 -459 0
-20 -22 -459 0
20 -22 459 0
23 25 460 0
-23 25 -460 0
23 -25 -460 0
-23 -25 460 0
26 -27 461 0
-26 -27 -461 0
26 27 -461 0
-26 27 461 0
28 29 462 0
-28 29 -462 0
28 -29 -462 0
-28 -29 462 0
-30 -32 463 0
30 -32 -463 0
-30 32 -463 0
30 32 463 0
-33 -37 464 0
33 -37 -464 0
-33 37 -464 0
33 37 464 0
-39 41 465 0
39 41 -465 0
-39 -41 -465 0
39 -41 465 0
-43 48 466 0
43 48 -466 0
-43 -48 -466 0
43 -48 466 0
451 -452 467 0
-451 -452 -467 0
451 452 -467 0
-451 452 467 0
453 -454 468 0
-453 -454 -468 0
453 454 -468 0
-453 454 468 0
455 -456 469 0
-455 -456 -469 0
455 456 -469 0
-455 456 469 0
457 -458 470 0
-457 -458 -470 0
457 458 -470 0
-457 458 470 0
459 -460 471 0
-459 -460 -471 0
459 460 -471 0
-459 460 471 0
461 -462 472 0
-461 -462 -472 0
461 462 -472 0
-461 462 472 0
463 -464 473 0
-463 -464 -473 0
463 464 -473 0
-463 464 473 0
465 -466 474 0
-465 -466 -474 0
465 466 -474 0
-465 466 474 0
467 -468 475 0
-467 -468 -475 0
467 468 -475 0
-467 468 475 0
469 -470 476 0
-469 -470 -476 0
469 470 -476 0
-469 470 476 0
471 -472 477 0
-471 -472 -477 0
471 472 -477 0
-471 472 477 0
473 -474 478 0
-473 -474 -478 0
473 474 -478 0
-473 474 478 0
475 -476 479 0
-475 -476 -479 0
475 476 -479 0
-475 476 479 0
477 -478 480 0
-477 -478 -480 0
477 478 -480 0
-477 478 480 0
479 480 0
-479 -480 0
2 -3 481 0
-2 -3 -481 0
2 3 -481 0
-2 3 481 0
-4 -7 482 0
4 -7 -482 0
-4 7 -482 0
4 7 482 0
8 -10 483 0
-8 -10 -483 0
8 10 -483 0
-8 10 483 0
-11 -16 484 0
11 -16 -484 0
-11 16 -484 0
11 16 484 0
17 18 485 0
-17 18 -485 0
17 -18 -485 0
-17 -18 485 0
-19 -20 486 0
19 -20 -486 0
-19 20 -486 0
19 20 486 0
24 -25 487 0
-24 -25 -487 0
24 25 -487 0
-24 25 487 0
-27 -29 488 0
27 -29 -488 0
-27 29 -488 0
27 29 488 0
32 34 489 0
-32 34 -489 0
32 -34 -489 0
-32 -34 489 0
36 37 490 0
-36 37 -490 0
36 -37 -490 0
-36 -37 490 0
-38 -39 491 0
38 -39 -491 0
-38 39 -491 0
38 39 491 0
-41 -43 492 0
41 -43 -492 0
-41 43 -492 0
41 43 492 0
-45 -47 493 0
45 -47 -493 0
-45 47 -493 0
45 47 493 0
48 49 494 0
-48 49 -494 0
48 -49 -494 0
-48 -49 494 0
481 -482 495 0
-481 -482 -495 0
481 482 -495 0
-481 482 495 0
483 -484 496 0
-483 -484 -496 0
483 484 -496 0
-483 484 496 0
485 -486 497 0
-485 -486 -497 0
485 486 -497 0
-485 486 497 0
487 -488 498 0
-487 -488 -498 0
487 488 -498 0
-487 488 498 0
489 -490 499 0
-489 -490 -499 0
489 490 -499 0
-489 490 499 0
491 -492 500 0
-491 -492 -500 0
491 492 -500 0
-491 492 500 0
493 -494 501 0
-493 -494 -501 0
493 494 -501 0
-493 494 501 0
495 -496 502 0
-495 -496 -502 0
495 496 -502 0
-495 496 502 0
497 -498 503 0
-497 -498 -503 0
497 498 -503 0
-497 498 503 0
499 -500 504 0
-499 -500 -504 0
499 500 -504 0
-499 500 504 0
501 -502 505 0
-501 -502 -505 0
501 502 -505 0
-501 502 505 0
503 -504 506 0
-503 -504 -506 0
503 504 -506 0
-503 504 506 0
505 506 0
-505 -506 0
-4 5 507 0
4 5 -507 0
-4 -5 -507 0
4 -5 507 0
-6 9 508 0
6 9 -508 0
-6 -9 -508 0
6 -9 508 0
10 -11 509 0
-10 -11 -509 0
10 11 -509 0
-10 11 509 0
-12 -14 510 0
12 -14 -510 0
-12 14 -510 0
12 14 510 0
-15 20 511 0
15 20 -511 0
-15 -20 -511 0
15 -20 511 0
21 24 512 0
-21 24 -512 0
21 -24 -512 0
-21 -24 512 0
26 28 513 0
-26 28 -513 0
26 -28 -513 0
-26 -28 513 0
29 31 514 0
-29 31 -514 0
29 -31 -514 0
-29 -31 514 0
32 -33 515 0
-32 -33 -515 0
32 33 -515 0
-32 33 515 0
-36 37 516 0
36 37 -516 0
-36 -37 -516 0
36 -37 516 0
-38 -40 517 0
38 -40 -517 0
-38 40 -517 0
38 40 517 0
41 42 518 0
-41 42 -518 0
41 -42 -518 0
-41 -42 518 0
506 -507 519 0
-506 -507 -519 0
506 507 -519 0
-506 507 519 0
508 -509 520 0
-508 -509 -520 0
508 509 -520 0
-508 509 520 0
510 -511 521 0
-510 -511 -521 0
510 511 -521 0
-510 511 521 0
512 -513 522 0
-512 -513 -522 0
512 513 -522 0
-512 513 522 0
514 -515 523 0
-514 -515 -523 0
514 515 -523 0
-514 515 523 0
516 -517 524 0
-516 -517 -524 0
516 517 -524 0
-516 517 524 0
518 -519 525 0
-518 -519 -525 0
518 519 -525 0
-518 519 525 0
520 -521 526 0
-520 -521 -526 0
520 521 -526 0
-520 521 526 0
522 -523 527 0
-522 -523 -527 0
522 523 -527 0
-522 523 527 0
524 -525 528 0
-524 -525 -528 0
524 525 -528 0
-524 525 528 0
526 -527 529 0
-526 -527 -529 0
526 527 -529 0
-526 527 529 0
528 529 0
-528 -529 0
